p cnf 505 1926
6 -17 -16 0
13 -36 -34 0
-43 -49 36 0
24 -20 42 0
-31 35 25 0
42 -17 33 0
47 -37 -21 0
38 11 -1 0
43 -38 -2 0
-8 29 14 0
11 -16 1 0
-50 -11 -47 0
36 -32 -25 0
-40 -23 22 0
-27 -12 30 0
40 -19 -14 0
-17 -27 4 0
4 -37 6 0
15 -31 -38 0
47 -5 16 0
-32 -39 -29 0
43 -7 -1 0
11 -22 -1 0
-30 -41 6 0
3 -10 -43 0
-16 -2 -24 0
5 18 -8 0
-26 45 39 0
11 37 6 0
17 42 -25 0
-6 19 -21 0
44 41 -30 0
34 9 17 0
16 -20 -41 0
-37 10 41 0
37 -18 6 0
-15 4 -35 0
-44 -2 8 0
25 22 7 0
3 -20 18 0
-40 -35 30 0
4 -47 -16 0
10 6 -22 0
46 42 12 0
-40 24 45 0
-45 -3 -7 0
3 -49 -37 0
-30 20 21 0
-43 -28 -40 0
-18 -47 48 0
2 -3 51 0
-2 -3 -51 0
2 3 -51 0
-2 3 51 0
-7 -8 52 0
7 -8 -52 0
-7 8 -52 0
7 8 52 0
9 10 53 0
-9 10 -53 0
9 -10 -53 0
-9 -10 53 0
12 -17 54 0
-12 -17 -54 0
12 17 -54 0
-12 17 54 0
-19 -20 55 0
19 -20 -55 0
-19 20 -55 0
19 20 55 0
22 23 56 0
-22 23 -56 0
22 -23 -56 0
-22 -23 56 0
24 -25 57 0
-24 -25 -57 0
24 25 -57 0
-24 25 57 0
28 -30 58 0
-28 -30 -58 0
28 30 -58 0
-28 30 58 0
31 32 59 0
-31 32 -59 0
31 -32 -59 0
-31 -32 59 0
-35 -40 60 0
35 -40 -60 0
-35 40 -60 0
35 40 60 0
-41 43 61 0
41 43 -61 0
-41 -43 -61 0
41 -43 61 0
-45 -46 62 0
45 -46 -62 0
-45 46 -62 0
45 46 62 0
50 -51 63 0
-50 -51 -63 0
50 51 -63 0
-50 51 63 0
52 -53 64 0
-52 -53 -64 0
52 53 -64 0
-52 53 64 0
54 -55 65 0
-54 -55 -65 0
54 55 -65 0
-54 55 65 0
56 -57 66 0
-56 -57 -66 0
56 57 -66 0
-56 57 66 0
58 -59 67 0
-58 -59 -67 0
58 59 -67 0
-58 59 67 0
60 -61 68 0
-60 -61 -68 0
60 61 -68 0
-60 61 68 0
62 -63 69 0
-62 -63 -69 0
62 63 -69 0
-62 63 69 0
64 -65 70 0
-64 -65 -70 0
64 65 -70 0
-64 65 70 0
66 -67 71 0
-66 -67 -71 0
66 67 -71 0
-66 67 71 0
68 -69 72 0
-68 -69 -72 0
68 69 -72 0
-68 69 72 0
70 -71 73 0
-70 -71 -73 0
70 71 -73 0
-70 71 73 0
72 73 0
-72 -73 0
-1 3 74 0
1 3 -74 0
-1 -3 -74 0
1 -3 74 0
4 -5 75 0
-4 -5 -75 0
4 5 -75 0
-4 5 75 0
-6 -8 76 0
6 -8 -76 0
-6 8 -76 0
6 8 76 0
9 10 77 0
-9 10 -77 0
9 -10 -77 0
-9 -10 77 0
11 13 78 0
-11 13 -78 0
11 -13 -78 0
-11 -13 78 0
14 15 79 0
-14 15 -79 0
14 -15 -79 0
-14 -15 79 0
16 21 80 0
-16 21 -80 0
16 -21 -80 0
-16 -21 80 0
-23 24 81 0
23 24 -81 0
-23 -24 -81 0
23 -24 81 0
-26 -27 82 0
26 -27 -82 0
-26 27 -82 0
26 27 82 0
-29 -30 83 0
29 -30 -83 0
-29 30 -83 0
29 30 83 0
-37 -40 84 0
37 -40 -84 0
-37 40 -84 0
37 40 84 0
-44 45 85 0
44 45 -85 0
-44 -45 -85 0
44 -45 85 0
46 -47 86 0
-46 -47 -86 0
46 47 -86 0
-46 47 86 0
-48 49 87 0
48 49 -87 0
-48 -49 -87 0
48 -49 87 0
73 -74 88 0
-73 -74 -88 0
73 74 -88 0
-73 74 88 0
75 -76 89 0
-75 -76 -89 0
75 76 -89 0
-75 76 89 0
77 -78 90 0
-77 -78 -90 0
77 78 -90 0
-77 78 90 0
79 -80 91 0
-79 -80 -91 0
79 80 -91 0
-79 80 91 0
81 -82 92 0
-81 -82 -92 0
81 82 -92 0
-81 82 92 0
83 -84 93 0
-83 -84 -93 0
83 84 -93 0
-83 84 93 0
85 -86 94 0
-85 -86 -94 0
85 86 -94 0
-85 86 94 0
87 -88 95 0
-87 -88 -95 0
87 88 -95 0
-87 88 95 0
89 -90 96 0
-89 -90 -96 0
89 90 -96 0
-89 90 96 0
91 -92 97 0
-91 -92 -97 0
91 92 -97 0
-91 92 97 0
93 -94 98 0
-93 -94 -98 0
93 94 -98 0
-93 94 98 0
95 -96 99 0
-95 -96 -99 0
95 96 -99 0
-95 96 99 0
97 -98 100 0
-97 -98 -100 0
97 98 -100 0
-97 98 100 0
99 100 0
-99 -100 0
-1 -2 101 0
1 -2 -101 0
-1 2 -101 0
1 2 101 0
3 -4 102 0
-3 -4 -102 0
3 4 -102 0
-3 4 102 0
5 -7 103 0
-5 -7 -103 0
5 7 -103 0
-5 7 103 0
8 -11 104 0
-8 -11 -104 0
8 11 -104 0
-8 11 104 0
-13 14 105 0
13 14 -105 0
-13 -14 -105 0
13 -14 105 0
-15 16 106 0
15 16 -106 0
-15 -16 -106 0
15 -16 106 0
-20 -21 107 0
20 -21 -107 0
-20 21 -107 0
20 21 107 0
-22 31 108 0
22 31 -108 0
-22 -31 -108 0
22 -31 108 0
32 -38 109 0
-32 -38 -109 0
32 38 -109 0
-32 38 109 0
39 40 110 0
-39 40 -110 0
39 -40 -110 0
-39 -40 110 0
-43 44 111 0
43 44 -111 0
-43 -44 -111 0
43 -44 111 0
-45 -46 112 0
45 -46 -112 0
-45 46 -112 0
45 46 112 0
100 -101 113 0
-100 -101 -113 0
100 101 -113 0
-100 101 113 0
102 -103 114 0
-102 -103 -114 0
102 103 -114 0
-102 103 114 0
104 -105 115 0
-104 -105 -115 0
104 105 -115 0
-104 105 115 0
106 -107 116 0
-106 -107 -116 0
106 107 -116 0
-106 107 116 0
108 -109 117 0
-108 -109 -117 0
108 109 -117 0
-108 109 117 0
110 -111 118 0
-110 -111 -118 0
110 111 -118 0
-110 111 118 0
112 -113 119 0
-112 -113 -119 0
112 113 -119 0
-112 113 119 0
114 -115 120 0
-114 -115 -120 0
114 115 -120 0
-114 115 120 0
116 -117 121 0
-116 -117 -121 0
116 117 -121 0
-116 117 121 0
118 -119 122 0
-118 -119 -122 0
118 119 -122 0
-118 119 122 0
120 -121 123 0
-120 -121 -123 0
120 121 -123 0
-120 121 123 0
122 123 0
-122 -123 0
-3 5 124 0
3 5 -124 0
-3 -5 -124 0
3 -5 124 0
-6 -7 125 0
6 -7 -125 0
-6 7 -125 0
6 7 125 0
11 13 126 0
-11 13 -126 0
11 -13 -126 0
-11 -13 126 0
-14 19 127 0
14 19 -127 0
-14 -19 -127 0
14 -19 127 0
-21 -22 128 0
21 -22 -128 0
-21 22 -128 0
21 22 128 0
-27 28 129 0
27 28 -129 0
-27 -28 -129 0
27 -28 129 0
30 -31 130 0
-30 -31 -130 0
30 31 -130 0
-30 31 130 0
33 34 131 0
-33 34 -131 0
33 -34 -131 0
-33 -34 131 0
40 -42 132 0
-40 -42 -132 0
40 42 -132 0
-40 42 132 0
-43 -45 133 0
43 -45 -133 0
-43 45 -133 0
43 45 133 0
-47 -48 134 0
47 -48 -134 0
-47 48 -134 0
47 48 134 0
124 -125 135 0
-124 -125 -135 0
124 125 -135 0
-124 125 135 0
126 -127 136 0
-126 -127 -136 0
126 127 -136 0
-126 127 136 0
128 -129 137 0
-128 -129 -137 0
128 129 -137 0
-128 129 137 0
130 -131 138 0
-130 -131 -138 0
130 131 -138 0
-130 131 138 0
132 -133 139 0
-132 -133 -139 0
132 133 -139 0
-132 133 139 0
134 -135 140 0
-134 -135 -140 0
134 135 -140 0
-134 135 140 0
136 -137 141 0
-136 -137 -141 0
136 137 -141 0
-136 137 141 0
138 -139 142 0
-138 -139 -142 0
138 139 -142 0
-138 139 142 0
-140 -141 142 0
140 -141 -142 0
-140 141 -142 0
140 141 142 0
2 4 143 0
-2 4 -143 0
2 -4 -143 0
-2 -4 143 0
-5 8 144 0
5 8 -144 0
-5 -8 -144 0
5 -8 144 0
9 10 145 0
-9 10 -145 0
9 -10 -145 0
-9 -10 145 0
11 -12 146 0
-11 -12 -146 0
11 12 -146 0
-11 12 146 0
13 21 147 0
-13 21 -147 0
13 -21 -147 0
-13 -21 147 0
23 -24 148 0
-23 -24 -148 0
23 24 -148 0
-23 24 148 0
-25 -28 149 0
25 -28 -149 0
-25 28 -149 0
25 28 149 0
-31 -33 150 0
31 -33 -150 0
-31 33 -150 0
31 33 150 0
-38 39 151 0
38 39 -151 0
-38 -39 -151 0
38 -39 151 0
40 -41 152 0
-40 -41 -152 0
40 41 -152 0
-40 41 152 0
42 43 153 0
-42 43 -153 0
42 -43 -153 0
-42 -43 153 0
-44 45 154 0
44 45 -154 0
-44 -45 -154 0
44 -45 154 0
-46 -47 155 0
46 -47 -155 0
-46 47 -155 0
46 47 155 0
143 -144 156 0
-143 -144 -156 0
143 144 -156 0
-143 144 156 0
145 -146 157 0
-145 -146 -157 0
145 146 -157 0
-145 146 157 0
147 -148 158 0
-147 -148 -158 0
147 148 -158 0
-147 148 158 0
149 -150 159 0
-149 -150 -159 0
149 150 -159 0
-149 150 159 0
151 -152 160 0
-151 -152 -160 0
151 152 -160 0
-151 152 160 0
153 -154 161 0
-153 -154 -161 0
153 154 -161 0
-153 154 161 0
155 -156 162 0
-155 -156 -162 0
155 156 -162 0
-155 156 162 0
157 -158 163 0
-157 -158 -163 0
157 158 -163 0
-157 158 163 0
159 -160 164 0
-159 -160 -164 0
159 160 -164 0
-159 160 164 0
161 -162 165 0
-161 -162 -165 0
161 162 -165 0
-161 162 165 0
163 -164 166 0
-163 -164 -166 0
163 164 -166 0
-163 164 166 0
165 166 0
-165 -166 0
3 4 167 0
-3 4 -167 0
3 -4 -167 0
-3 -4 167 0
-6 -10 168 0
6 -10 -168 0
-6 10 -168 0
6 10 168 0
12 -13 169 0
-12 -13 -169 0
12 13 -169 0
-12 13 169 0
14 -15 170 0
-14 -15 -170 0
14 15 -170 0
-14 15 170 0
-17 19 171 0
17 19 -171 0
-17 -19 -171 0
17 -19 171 0
-20 -21 172 0
20 -21 -172 0
-20 21 -172 0
20 21 172 0
23 24 173 0
-23 24 -173 0
23 -24 -173 0
-23 -24 173 0
28 29 174 0
-28 29 -174 0
28 -29 -174 0
-28 -29 174 0
32 34 175 0
-32 34 -175 0
32 -34 -175 0
-32 -34 175 0
-36 37 176 0
36 37 -176 0
-36 -37 -176 0
36 -37 176 0
44 45 177 0
-44 45 -177 0
44 -45 -177 0
-44 -45 177 0
48 49 178 0
-48 49 -178 0
48 -49 -178 0
-48 -49 178 0
167 -168 179 0
-167 -168 -179 0
167 168 -179 0
-167 168 179 0
169 -170 180 0
-169 -170 -180 0
169 170 -180 0
-169 170 180 0
171 -172 181 0
-171 -172 -181 0
171 172 -181 0
-171 172 181 0
173 -174 182 0
-173 -174 -182 0
173 174 -182 0
-173 174 182 0
175 -176 183 0
-175 -176 -183 0
175 176 -183 0
-175 176 183 0
177 -178 184 0
-177 -178 -184 0
177 178 -184 0
-177 178 184 0
179 -180 185 0
-179 -180 -185 0
179 180 -185 0
-179 180 185 0
181 -182 186 0
-181 -182 -186 0
181 182 -186 0
-181 182 186 0
183 -184 187 0
-183 -184 -187 0
183 184 -187 0
-183 184 187 0
-185 -186 187 0
185 -186 -187 0
-185 186 -187 0
185 186 187 0
-1 -3 188 0
1 -3 -188 0
-1 3 -188 0
1 3 188 0
-8 -10 189 0
8 -10 -189 0
-8 10 -189 0
8 10 189 0
-13 -14 190 0
13 -14 -190 0
-13 14 -190 0
13 14 190 0
-15 17 191 0
15 17 -191 0
-15 -17 -191 0
15 -17 191 0
19 -21 192 0
-19 -21 -192 0
19 21 -192 0
-19 21 192 0
-22 24 193 0
22 24 -193 0
-22 -24 -193 0
22 -24 193 0
25 28 194 0
-25 28 -194 0
25 -28 -194 0
-25 -28 194 0
29 -32 195 0
-29 -32 -195 0
29 32 -195 0
-29 32 195 0
36 -38 196 0
-36 -38 -196 0
36 38 -196 0
-36 38 196 0
39 40 197 0
-39 40 -197 0
39 -40 -197 0
-39 -40 197 0
41 43 198 0
-41 43 -198 0
41 -43 -198 0
-41 -43 198 0
47 48 199 0
-47 48 -199 0
47 -48 -199 0
-47 -48 199 0
188 -189 200 0
-188 -189 -200 0
188 189 -200 0
-188 189 200 0
190 -191 201 0
-190 -191 -201 0
190 191 -201 0
-190 191 201 0
192 -193 202 0
-192 -193 -202 0
192 193 -202 0
-192 193 202 0
194 -195 203 0
-194 -195 -203 0
194 195 -203 0
-194 195 203 0
196 -197 204 0
-196 -197 -204 0
196 197 -204 0
-196 197 204 0
198 -199 205 0
-198 -199 -205 0
198 199 -205 0
-198 199 205 0
200 -201 206 0
-200 -201 -206 0
200 201 -206 0
-200 201 206 0
202 -203 207 0
-202 -203 -207 0
202 203 -207 0
-202 203 207 0
204 -205 208 0
-204 -205 -208 0
204 205 -208 0
-204 205 208 0
-206 -207 208 0
206 -207 -208 0
-206 207 -208 0
206 207 208 0
2 -4 209 0
-2 -4 -209 0
2 4 -209 0
-2 4 209 0
7 -9 210 0
-7 -9 -210 0
7 9 -210 0
-7 9 210 0
12 -13 211 0
-12 -13 -211 0
12 13 -211 0
-12 13 211 0
15 -16 212 0
-15 -16 -212 0
15 16 -212 0
-15 16 212 0
19 22 213 0
-19 22 -213 0
19 -22 -213 0
-19 -22 213 0
24 -26 214 0
-24 -26 -214 0
24 26 -214 0
-24 26 214 0
27 -28 215 0
-27 -28 -215 0
27 28 -215 0
-27 28 215 0
29 32 216 0
-29 32 -216 0
29 -32 -216 0
-29 -32 216 0
34 -35 217 0
-34 -35 -217 0
34 35 -217 0
-34 35 217 0
-36 -41 218 0
36 -41 -218 0
-36 41 -218 0
36 41 218 0
-42 -43 219 0
42 -43 -219 0
-42 43 -219 0
42 43 219 0
44 -46 220 0
-44 -46 -220 0
44 46 -220 0
-44 46 220 0
48 -49 221 0
-48 -49 -221 0
48 49 -221 0
-48 49 221 0
209 -210 222 0
-209 -210 -222 0
209 210 -222 0
-209 210 222 0
211 -212 223 0
-211 -212 -223 0
211 212 -223 0
-211 212 223 0
213 -214 224 0
-213 -214 -224 0
213 214 -224 0
-213 214 224 0
215 -216 225 0
-215 -216 -225 0
215 216 -225 0
-215 216 225 0
217 -218 226 0
-217 -218 -226 0
217 218 -226 0
-217 218 226 0
219 -220 227 0
-219 -220 -227 0
219 220 -227 0
-219 220 227 0
221 -222 228 0
-221 -222 -228 0
221 222 -228 0
-221 222 228 0
223 -224 229 0
-223 -224 -229 0
223 224 -229 0
-223 224 229 0
225 -226 230 0
-225 -226 -230 0
225 226 -230 0
-225 226 230 0
227 -228 231 0
-227 -228 -231 0
227 228 -231 0
-227 228 231 0
229 -230 232 0
-229 -230 -232 0
229 230 -232 0
-229 230 232 0
231 232 0
-231 -232 0
3 4 233 0
-3 4 -233 0
3 -4 -233 0
-3 -4 233 0
-7 8 234 0
7 8 -234 0
-7 -8 -234 0
7 -8 234 0
-9 13 235 0
9 13 -235 0
-9 -13 -235 0
9 -13 235 0
16 -19 236 0
-16 -19 -236 0
16 19 -236 0
-16 19 236 0
20 -24 237 0
-20 -24 -237 0
20 24 -237 0
-20 24 237 0
-25 27 238 0
25 27 -238 0
-25 -27 -238 0
25 -27 238 0
-28 29 239 0
28 29 -239 0
-28 -29 -239 0
28 -29 239 0
30 31 240 0
-30 31 -240 0
30 -31 -240 0
-30 -31 240 0
33 -34 241 0
-33 -34 -241 0
33 34 -241 0
-33 34 241 0
36 37 242 0
-36 37 -242 0
36 -37 -242 0
-36 -37 242 0
-40 41 243 0
40 41 -243 0
-40 -41 -243 0
40 -41 243 0
-44 -45 244 0
44 -45 -244 0
-44 45 -244 0
44 45 244 0
-46 -48 245 0
46 -48 -245 0
-46 48 -245 0
46 48 245 0
233 -234 246 0
-233 -234 -246 0
233 234 -246 0
-233 234 246 0
235 -236 247 0
-235 -236 -247 0
235 236 -247 0
-235 236 247 0
237 -238 248 0
-237 -238 -248 0
237 238 -248 0
-237 238 248 0
239 -240 249 0
-239 -240 -249 0
239 240 -249 0
-239 240 249 0
241 -242 250 0
-241 -242 -250 0
241 242 -250 0
-241 242 250 0
243 -244 251 0
-243 -244 -251 0
243 244 -251 0
-243 244 251 0
245 -246 252 0
-245 -246 -252 0
245 246 -252 0
-245 246 252 0
247 -248 253 0
-247 -248 -253 0
247 248 -253 0
-247 248 253 0
249 -250 254 0
-249 -250 -254 0
249 250 -254 0
-249 250 254 0
251 -252 255 0
-251 -252 -255 0
251 252 -255 0
-251 252 255 0
253 -254 256 0
-253 -254 -256 0
253 254 -256 0
-253 254 256 0
255 256 0
-255 -256 0
2 9 257 0
-2 9 -257 0
2 -9 -257 0
-2 -9 257 0
13 15 258 0
-13 15 -258 0
13 -15 -258 0
-13 -15 258 0
16 17 259 0
-16 17 -259 0
16 -17 -259 0
-16 -17 259 0
18 -19 260 0
-18 -19 -260 0
18 19 -260 0
-18 19 260 0
-20 -22 261 0
20 -22 -261 0
-20 22 -261 0
20 22 261 0
-23 26 262 0
23 26 -262 0
-23 -26 -262 0
23 -26 262 0
-27 29 263 0
27 29 -263 0
-27 -29 -263 0
27 -29 263 0
32 -33 264 0
-32 -33 -264 0
32 33 -264 0
-32 33 264 0
37 38 265 0
-37 38 -265 0
37 -38 -265 0
-37 -38 265 0
-43 46 266 0
43 46 -266 0
-43 -46 -266 0
43 -46 266 0
-48 50 267 0
48 50 -267 0
-48 -50 -267 0
48 -50 267 0
257 -258 268 0
-257 -258 -268 0
257 258 -268 0
-257 258 268 0
259 -260 269 0
-259 -260 -269 0
259 260 -269 0
-259 260 269 0
261 -262 270 0
-261 -262 -270 0
261 262 -270 0
-261 262 270 0
263 -264 271 0
-263 -264 -271 0
263 264 -271 0
-263 264 271 0
265 -266 272 0
-265 -266 -272 0
265 266 -272 0
-265 266 272 0
267 -268 273 0
-267 -268 -273 0
267 268 -273 0
-267 268 273 0
269 -270 274 0
-269 -270 -274 0
269 270 -274 0
-269 270 274 0
271 -272 275 0
-271 -272 -275 0
271 272 -275 0
-271 272 275 0
-273 -274 275 0
273 -274 -275 0
-273 274 -275 0
273 274 275 0
-1 -2 276 0
1 -2 -276 0
-1 2 -276 0
1 2 276 0
5 -9 277 0
-5 -9 -277 0
5 9 -277 0
-5 9 277 0
-11 -12 278 0
11 -12 -278 0
-11 12 -278 0
11 12 278 0
-14 16 279 0
14 16 -279 0
-14 -16 -279 0
14 -16 279 0
17 18 280 0
-17 18 -280 0
17 -18 -280 0
-17 -18 280 0
-19 22 281 0
19 22 -281 0
-19 -22 -281 0
19 -22 281 0
23 -25 282 0
-23 -25 -282 0
23 25 -282 0
-23 25 282 0
-27 -28 283 0
27 -28 -283 0
-27 28 -283 0
27 28 283 0
34 -41 284 0
-34 -41 -284 0
34 41 -284 0
-34 41 284 0
42 44 285 0
-42 44 -285 0
42 -44 -285 0
-42 -44 285 0
45 -46 286 0
-45 -46 -286 0
45 46 -286 0
-45 46 286 0
-47 49 287 0
47 49 -287 0
-47 -49 -287 0
47 -49 287 0
275 -276 288 0
-275 -276 -288 0
275 276 -288 0
-275 276 288 0
277 -278 289 0
-277 -278 -289 0
277 278 -289 0
-277 278 289 0
279 -280 290 0
-279 -280 -290 0
279 280 -290 0
-279 280 290 0
281 -282 291 0
-281 -282 -291 0
281 282 -291 0
-281 282 291 0
283 -284 292 0
-283 -284 -292 0
283 284 -292 0
-283 284 292 0
285 -286 293 0
-285 -286 -293 0
285 286 -293 0
-285 286 293 0
287 -288 294 0
-287 -288 -294 0
287 288 -294 0
-287 288 294 0
289 -290 295 0
-289 -290 -295 0
289 290 -295 0
-289 290 295 0
291 -292 296 0
-291 -292 -296 0
291 292 -296 0
-291 292 296 0
293 -294 297 0
-293 -294 -297 0
293 294 -297 0
-293 294 297 0
295 -296 298 0
-295 -296 -298 0
295 296 -298 0
-295 296 298 0
297 298 0
-297 -298 0
2 -4 299 0
-2 -4 -299 0
2 4 -299 0
-2 4 299 0
5 7 300 0
-5 7 -300 0
5 -7 -300 0
-5 -7 300 0
8 -9 301 0
-8 -9 -301 0
8 9 -301 0
-8 9 301 0
10 -12 302 0
-10 -12 -302 0
10 12 -302 0
-10 12 302 0
13 -14 303 0
-13 -14 -303 0
13 14 -303 0
-13 14 303 0
-15 -16 304 0
15 -16 -304 0
-15 16 -304 0
15 16 304 0
-17 -20 305 0
17 -20 -305 0
-17 20 -305 0
17 20 305 0
21 -23 306 0
-21 -23 -306 0
21 23 -306 0
-21 23 306 0
25 -30 307 0
-25 -30 -307 0
25 30 -307 0
-25 30 307 0
31 -34 308 0
-31 -34 -308 0
31 34 -308 0
-31 34 308 0
-39 -41 309 0
39 -41 -309 0
-39 41 -309 0
39 41 309 0
44 48 310 0
-44 48 -310 0
44 -48 -310 0
-44 -48 310 0
-49 -50 311 0
49 -50 -311 0
-49 50 -311 0
49 50 311 0
299 -300 312 0
-299 -300 -312 0
299 300 -312 0
-299 300 312 0
301 -302 313 0
-301 -302 -313 0
301 302 -313 0
-301 302 313 0
303 -304 314 0
-303 -304 -314 0
303 304 -314 0
-303 304 314 0
305 -306 315 0
-305 -306 -315 0
305 306 -315 0
-305 306 315 0
307 -308 316 0
-307 -308 -316 0
307 308 -316 0
-307 308 316 0
309 -310 317 0
-309 -310 -317 0
309 310 -317 0
-309 310 317 0
311 -312 318 0
-311 -312 -318 0
311 312 -318 0
-311 312 318 0
313 -314 319 0
-313 -314 -319 0
313 314 -319 0
-313 314 319 0
315 -316 320 0
-315 -316 -320 0
315 316 -320 0
-315 316 320 0
317 -318 321 0
-317 -318 -321 0
317 318 -321 0
-317 318 321 0
319 -320 322 0
-319 -320 -322 0
319 320 -322 0
-319 320 322 0
321 322 0
-321 -322 0
1 2 323 0
-1 2 -323 0
1 -2 -323 0
-1 -2 323 0
6 12 324 0
-6 12 -324 0
6 -12 -324 0
-6 -12 324 0
-13 14 325 0
13 14 -325 0
-13 -14 -325 0
13 -14 325 0
-16 -19 326 0
16 -19 -326 0
-16 19 -326 0
16 19 326 0
-22 30 327 0
22 30 -327 0
-22 -30 -327 0
22 -30 327 0
31 -32 328 0
-31 -32 -328 0
31 32 -328 0
-31 32 328 0
-33 35 329 0
33 35 -329 0
-33 -35 -329 0
33 -35 329 0
36 38 330 0
-36 38 -330 0
36 -38 -330 0
-36 -38 330 0
-39 -41 331 0
39 -41 -331 0
-39 41 -331 0
39 41 331 0
-42 -43 332 0
42 -43 -332 0
-42 43 -332 0
42 43 332 0
-44 45 333 0
44 45 -333 0
-44 -45 -333 0
44 -45 333 0
46 -50 334 0
-46 -50 -334 0
46 50 -334 0
-46 50 334 0
323 -324 335 0
-323 -324 -335 0
323 324 -335 0
-323 324 335 0
325 -326 336 0
-325 -326 -336 0
325 326 -336 0
-325 326 336 0
327 -328 337 0
-327 -328 -337 0
327 328 -337 0
-327 328 337 0
329 -330 338 0
-329 -330 -338 0
329 330 -338 0
-329 330 338 0
331 -332 339 0
-331 -332 -339 0
331 332 -339 0
-331 332 339 0
333 -334 340 0
-333 -334 -340 0
333 334 -340 0
-333 334 340 0
335 -336 341 0
-335 -336 -341 0
335 336 -341 0
-335 336 341 0
337 -338 342 0
-337 -338 -342 0
337 338 -342 0
-337 338 342 0
339 -340 343 0
-339 -340 -343 0
339 340 -343 0
-339 340 343 0
-341 -342 343 0
341 -342 -343 0
-341 342 -343 0
341 342 343 0
2 -4 344 0
-2 -4 -344 0
2 4 -344 0
-2 4 344 0
-5 6 345 0
5 6 -345 0
-5 -6 -345 0
5 -6 345 0
8 10 346 0
-8 10 -346 0
8 -10 -346 0
-8 -10 346 0
13 -15 347 0
-13 -15 -347 0
13 15 -347 0
-13 15 347 0
16 19 348 0
-16 19 -348 0
16 -19 -348 0
-16 -19 348 0
-20 21 349 0
20 21 -349 0
-20 -21 -349 0
20 -21 349 0
-23 24 350 0
23 24 -350 0
-23 -24 -350 0
23 -24 350 0
25 26 351 0
-25 26 -351 0
25 -26 -351 0
-25 -26 351 0
-27 -30 352 0
27 -30 -352 0
-27 30 -352 0
27 30 352 0
32 34 353 0
-32 34 -353 0
32 -34 -353 0
-32 -34 353 0
-36 37 354 0
36 37 -354 0
-36 -37 -354 0
36 -37 354 0
38 -39 355 0
-38 -39 -355 0
38 39 -355 0
-38 39 355 0
-42 -44 356 0
42 -44 -356 0
-42 44 -356 0
42 44 356 0
-46 -50 357 0
46 -50 -357 0
-46 50 -357 0
46 50 357 0
344 -345 358 0
-344 -345 -358 0
344 345 -358 0
-344 345 358 0
346 -347 359 0
-346 -347 -359 0
346 347 -359 0
-346 347 359 0
348 -349 360 0
-348 -349 -360 0
348 349 -360 0
-348 349 360 0
350 -351 361 0
-350 -351 -361 0
350 351 -361 0
-350 351 361 0
352 -353 362 0
-352 -353 -362 0
352 353 -362 0
-352 353 362 0
354 -355 363 0
-354 -355 -363 0
354 355 -363 0
-354 355 363 0
356 -357 364 0
-356 -357 -364 0
356 357 -364 0
-356 357 364 0
358 -359 365 0
-358 -359 -365 0
358 359 -365 0
-358 359 365 0
360 -361 366 0
-360 -361 -366 0
360 361 -366 0
-360 361 366 0
362 -363 367 0
-362 -363 -367 0
362 363 -367 0
-362 363 367 0
364 -365 368 0
-364 -365 -368 0
364 365 -368 0
-364 365 368 0
366 -367 369 0
-366 -367 -369 0
366 367 -369 0
-366 367 369 0
368 369 0
-368 -369 0
1 -4 370 0
-1 -4 -370 0
1 4 -370 0
-1 4 370 0
-5 -6 371 0
5 -6 -371 0
-5 6 -371 0
5 6 371 0
7 9 372 0
-7 9 -372 0
7 -9 -372 0
-7 -9 372 0
-10 -11 373 0
10 -11 -373 0
-10 11 -373 0
10 11 373 0
13 14 374 0
-13 14 -374 0
13 -14 -374 0
-13 -14 374 0
-16 -17 375 0
16 -17 -375 0
-16 17 -375 0
16 17 375 0
-19 21 376 0
19 21 -376 0
-19 -21 -376 0
19 -21 376 0
25 26 377 0
-25 26 -377 0
25 -26 -377 0
-25 -26 377 0
29 -30 378 0
-29 -30 -378 0
29 30 -378 0
-29 30 378 0
32 33 379 0
-32 33 -379 0
32 -33 -379 0
-32 -33 379 0
-34 35 380 0
34 35 -380 0
-34 -35 -380 0
34 -35 380 0
-36 -40 381 0
36 -40 -381 0
-36 40 -381 0
36 40 381 0
41 -42 382 0
-41 -42 -382 0
41 42 -382 0
-41 42 382 0
43 44 383 0
-43 44 -383 0
43 -44 -383 0
-43 -44 383 0
45 -47 384 0
-45 -47 -384 0
45 47 -384 0
-45 47 384 0
-49 50 385 0
49 50 -385 0
-49 -50 -385 0
49 -50 385 0
370 -371 386 0
-370 -371 -386 0
370 371 -386 0
-370 371 386 0
372 -373 387 0
-372 -373 -387 0
372 373 -387 0
-372 373 387 0
374 -375 388 0
-374 -375 -388 0
374 375 -388 0
-374 375 388 0
376 -377 389 0
-376 -377 -389 0
376 377 -389 0
-376 377 389 0
378 -379 390 0
-378 -379 -390 0
378 379 -390 0
-378 379 390 0
380 -381 391 0
-380 -381 -391 0
380 381 -391 0
-380 381 391 0
382 -383 392 0
-382 -383 -392 0
382 383 -392 0
-382 383 392 0
384 -385 393 0
-384 -385 -393 0
384 385 -393 0
-384 385 393 0
386 -387 394 0
-386 -387 -394 0
386 387 -394 0
-386 387 394 0
388 -389 395 0
-388 -389 -395 0
388 389 -395 0
-388 389 395 0
390 -391 396 0
-390 -391 -396 0
390 391 -396 0
-390 391 396 0
392 -393 397 0
-392 -393 -397 0
392 393 -397 0
-392 393 397 0
394 -395 398 0
-394 -395 -398 0
394 395 -398 0
-394 395 398 0
396 -397 399 0
-396 -397 -399 0
396 397 -399 0
-396 397 399 0
398 399 0
-398 -399 0
2 3 400 0
-2 3 -400 0
2 -3 -400 0
-2 -3 400 0
5 -8 401 0
-5 -8 -401 0
5 8 -401 0
-5 8 401 0
17 -20 402 0
-17 -20 -402 0
17 20 -402 0
-17 20 402 0
-21 -22 403 0
21 -22 -403 0
-21 22 -403 0
21 22 403 0
-23 24 404 0
23 24 -404 0
-23 -24 -404 0
23 -24 404 0
25 -26 405 0
-25 -26 -405 0
25 26 -405 0
-25 26 405 0
27 28 406 0
-27 28 -406 0
27 -28 -406 0
-27 -28 406 0
-30 -31 407 0
30 -31 -407 0
-30 31 -407 0
30 31 407 0
35 37 408 0
-35 37 -408 0
35 -37 -408 0
-35 -37 408 0
39 -41 409 0
-39 -41 -409 0
39 41 -409 0
-39 41 409 0
-42 -45 410 0
42 -45 -410 0
-42 45 -410 0
42 45 410 0
399 -400 411 0
-399 -400 -411 0
399 400 -411 0
-399 400 411 0
401 -402 412 0
-401 -402 -412 0
401 402 -412 0
-401 402 412 0
403 -404 413 0
-403 -404 -413 0
403 404 -413 0
-403 404 413 0
405 -406 414 0
-405 -406 -414 0
405 406 -414 0
-405 406 414 0
407 -408 415 0
-407 -408 -415 0
407 408 -415 0
-407 408 415 0
409 -410 416 0
-409 -410 -416 0
409 410 -416 0
-409 410 416 0
411 -412 417 0
-411 -412 -417 0
411 412 -417 0
-411 412 417 0
413 -414 418 0
-413 -414 -418 0
413 414 -418 0
-413 414 418 0
415 -416 419 0
-415 -416 -419 0
415 416 -419 0
-415 416 419 0
-417 -418 419 0
417 -418 -419 0
-417 418 -419 0
417 418 419 0
-2 -5 420 0
2 -5 -420 0
-2 5 -420 0
2 5 420 0
-6 12 421 0
6 12 -421 0
-6 -12 -421 0
6 -12 421 0
-14 15 422 0
14 15 -422 0
-14 -15 -422 0
14 -15 422 0
-18 -19 423 0
18 -19 -423 0
-18 19 -423 0
18 19 423 0
21 22 424 0
-21 22 -424 0
21 -22 -424 0
-21 -22 424 0
23 -24 425 0
-23 -24 -425 0
23 24 -425 0
-23 24 425 0
-25 -26 426 0
25 -26 -426 0
-25 26 -426 0
25 26 426 0
27 29 427 0
-27 29 -427 0
27 -29 -427 0
-27 -29 427 0
32 38 428 0
-32 38 -428 0
32 -38 -428 0
-32 -38 428 0
-39 44 429 0
39 44 -429 0
-39 -44 -429 0
39 -44 429 0
-45 49 430 0
45 49 -430 0
-45 -49 -430 0
45 -49 430 0
419 -420 431 0
-419 -420 -431 0
419 420 -431 0
-419 420 431 0
421 -422 432 0
-421 -422 -432 0
421 422 -432 0
-421 422 432 0
423 -424 433 0
-423 -424 -433 0
423 424 -433 0
-423 424 433 0
425 -426 434 0
-425 -426 -434 0
425 426 -434 0
-425 426 434 0
427 -428 435 0
-427 -428 -435 0
427 428 -435 0
-427 428 435 0
429 -430 436 0
-429 -430 -436 0
429 430 -436 0
-429 430 436 0
431 -432 437 0
-431 -432 -437 0
431 432 -437 0
-431 432 437 0
433 -434 438 0
-433 -434 -438 0
433 434 -438 0
-433 434 438 0
435 -436 439 0
-435 -436 -439 0
435 436 -439 0
-435 436 439 0
-437 -438 439 0
437 -438 -439 0
-437 438 -439 0
437 438 439 0
-2 -8 440 0
2 -8 -440 0
-2 8 -440 0
2 8 440 0
-9 10 441 0
9 10 -441 0
-9 -10 -441 0
9 -10 441 0
12 -13 442 0
-12 -13 -442 0
12 13 -442 0
-12 13 442 0
-14 15 443 0
14 15 -443 0
-14 -15 -443 0
14 -15 443 0
16 17 444 0
-16 17 -444 0
16 -17 -444 0
-16 -17 444 0
-18 20 445 0
18 20 -445 0
-18 -20 -445 0
18 -20 445 0
-22 23 446 0
22 23 -446 0
-22 -23 -446 0
22 -23 446 0
-25 26 447 0
25 26 -447 0
-25 -26 -447 0
25 -26 447 0
-27 -29 448 0
27 -29 -448 0
-27 29 -448 0
27 29 448 0
31 33 449 0
-31 33 -449 0
31 -33 -449 0
-31 -33 449 0
34 -38 450 0
-34 -38 -450 0
34 38 -450 0
-34 38 450 0
-39 -42 451 0
39 -42 -451 0
-39 42 -451 0
39 42 451 0
-45 -46 452 0
45 -46 -452 0
-45 46 -452 0
45 46 452 0
439 -440 453 0
-439 -440 -453 0
439 440 -453 0
-439 440 453 0
441 -442 454 0
-441 -442 -454 0
441 442 -454 0
-441 442 454 0
443 -444 455 0
-443 -444 -455 0
443 444 -455 0
-443 444 455 0
445 -446 456 0
-445 -446 -456 0
445 446 -456 0
-445 446 456 0
447 -448 457 0
-447 -448 -457 0
447 448 -457 0
-447 448 457 0
449 -450 458 0
-449 -450 -458 0
449 450 -458 0
-449 450 458 0
451 -452 459 0
-451 -452 -459 0
451 452 -459 0
-451 452 459 0
453 -454 460 0
-453 -454 -460 0
453 454 -460 0
-453 454 460 0
455 -456 461 0
-455 -456 -461 0
455 456 -461 0
-455 456 461 0
457 -458 462 0
-457 -458 -462 0
457 458 -462 0
-457 458 462 0
459 -460 463 0
-459 -460 -463 0
459 460 -463 0
-459 460 463 0
461 -462 464 0
-461 -462 -464 0
461 462 -464 0
-461 462 464 0
463 464 0
-463 -464 0
-1 -4 465 0
1 -4 -465 0
-1 4 -465 0
1 4 465 0
5 -6 466 0
-5 -6 -466 0
5 6 -466 0
-5 6 466 0
-8 10 467 0
8 10 -467 0
-8 -10 -467 0
8 -10 467 0
13 14 468 0
-13 14 -468 0
13 -14 -468 0
-13 -14 468 0
-16 -17 469 0
16 -17 -469 0
-16 17 -469 0
16 17 469 0
-18 -19 470 0
18 -19 -470 0
-18 19 -470 0
18 19 470 0
-20 21 471 0
20 21 -471 0
-20 -21 -471 0
20 -21 471 0
-26 -28 472 0
26 -28 -472 0
-26 28 -472 0
26 28 472 0
29 -30 473 0
-29 -30 -473 0
29 30 -473 0
-29 30 473 0
34 -35 474 0
-34 -35 -474 0
34 35 -474 0
-34 35 474 0
36 37 475 0
-36 37 -475 0
36 -37 -475 0
-36 -37 475 0
39 -42 476 0
-39 -42 -476 0
39 42 -476 0
-39 42 476 0
-43 -45 477 0
43 -45 -477 0
-43 45 -477 0
43 45 477 0
-46 -47 478 0
46 -47 -478 0
-46 47 -478 0
46 47 478 0
465 -466 479 0
-465 -466 -479 0
465 466 -479 0
-465 466 479 0
467 -468 480 0
-467 -468 -480 0
467 468 -480 0
-467 468 480 0
469 -470 481 0
-469 -470 -481 0
469 470 -481 0
-469 470 481 0
471 -472 482 0
-471 -472 -482 0
471 472 -482 0
-471 472 482 0
473 -474 483 0
-473 -474 -483 0
473 474 -483 0
-473 474 483 0
475 -476 484 0
-475 -476 -484 0
475 476 -484 0
-475 476 484 0
477 -478 485 0
-477 -478 -485 0
477 478 -485 0
-477 478 485 0
479 -480 486 0
-479 -480 -486 0
479 480 -486 0
-479 480 486 0
481 -482 487 0
-481 -482 -487 0
481 482 -487 0
-481 482 487 0
483 -484 488 0
-483 -484 -488 0
483 484 -488 0
-483 484 488 0
485 -486 489 0
-485 -486 -489 0
485 486 -489 0
-485 486 489 0
487 -488 490 0
-487 -488 -490 0
487 488 -490 0
-487 488 490 0
489 490 0
-489 -490 0
-1 -4 491 0
1 -4 -491 0
-1 4 -491 0
1 4 491 0
5 8 492 0
-5 8 -492 0
5 -8 -492 0
-5 -8 492 0
10 16 493 0
-10 16 -493 0
10 -16 -493 0
-10 -16 493 0
-17 -22 494 0
17 -22 -494 0
-17 22 -494 0
17 22 494 0
24 25 495 0
-24 25 -495 0
24 -25 -495 0
-24 -25 495 0
-28 29 496 0
28 29 -496 0
-28 -29 -496 0
28 -29 496 0
-31 -32 497 0
31 -32 -497 0
-31 32 -497 0
31 32 497 0
47 -48 498 0
-47 -48 -498 0
47 48 -498 0
-47 48 498 0
-49 50 499 0
49 50 -499 0
-49 -50 -499 0
49 -50 499 0
491 -492 500 0
-491 -492 -500 0
491 492 -500 0
-491 492 500 0
493 -494 501 0
-493 -494 -501 0
493 494 -501 0
-493 494 501 0
495 -496 502 0
-495 -496 -502 0
495 496 -502 0
-495 496 502 0
497 -498 503 0
-497 -498 -503 0
497 498 -503 0
-497 498 503 0
499 -500 504 0
-499 -500 -504 0
499 500 -504 0
-499 500 504 0
501 -502 505 0
-501 -502 -505 0
501 502 -505 0
-501 502 505 0
-503 -504 505 0
503 -504 -505 0
-503 504 -505 0
503 504 505 0
